N=30;
start=[|
22, 15, 19, 0, 0, 0, 21, 28, 0, 29, 0, 20, 8, 0, 11, 0, 2, 10, 0, 9, 18, 0, 0, 0, 16, 6, 30, 27, 0, 4|
4, 0, 12, 5, 24, 18, 0, 9, 17, 20, 21, 30, 0, 0, 0, 25, 0, 0, 26, 0, 29, 0, 15, 7, 0, 13, 0, 3, 0, 16|
0, 0, 0, 15, 12, 0, 14, 0, 23, 27, 0, 6, 2, 10, 26, 0, 0, 0, 16, 22, 21, 0, 3, 18, 9, 0, 11, 30, 0, 0|
12, 9, 13, 0, 0, 6, 8, 27, 0, 0, 24, 0, 0, 0, 28, 18, 0, 4, 11, 23, 26, 0, 2, 20, 0, 5, 0, 0, 0, 21|
0, 27, 0, 14, 11, 15, 30, 0, 0, 0, 5, 2, 0, 0, 17, 10, 21, 25, 0, 0, 28, 9, 0, 1, 3, 19, 0, 12, 0, 0|
0, 0, 0, 10, 28, 21, 2, 7, 20, 0, 0, 5, 0, 1, 12, 6, 23, 0, 14, 16, 0, 29, 0, 24, 13, 0, 0, 0, 26, 0|
0, 21, 0, 8, 6, 0, 9, 0, 24, 0, 0, 25, 0, 16, 29, 27, 0, 15, 0, 0, 14, 5, 10, 0, 1, 30, 17, 23, 3, 0|
0, 0, 7, 0, 19, 0, 4, 25, 3, 2, 0, 0, 0, 0, 6, 5, 20, 0, 13, 24, 0, 18, 0, 28, 0, 21, 8, 0, 11, 1|
5, 0, 0, 27, 0, 0, 16, 0, 1, 0, 19, 17, 21, 29, 0, 24, 25, 26, 0, 8, 0, 28, 30, 14, 7, 2, 0, 0, 0, 22|
17, 0, 9, 4, 0, 22, 0, 13, 27, 19, 18, 3, 1, 0, 21, 23, 26, 0, 0, 0, 2, 0, 0, 0, 0, 16, 5, 10, 0, 14|
0, 29, 6, 28, 25, 0, 0, 0, 0, 0, 22, 15, 3, 0, 10, 0, 14, 0, 12, 0, 17, 4, 0, 0, 26, 7, 13, 8, 5, 2|
0, 4, 0, 0, 26, 0, 18, 19, 0, 14, 3, 13, 0, 20, 0, 12, 29, 17, 7, 21, 15, 8, 11, 0, 22, 0, 0, 2, 0, 0|
6, 0, 0, 9, 7, 8, 0, 0, 0, 0, 17, 12, 18, 22, 27, 0, 10, 0, 0, 15, 0, 14, 4, 0, 0, 28, 29, 11, 20, 23|
0, 0, 10, 0, 8, 11, 25, 17, 4, 13, 0, 0, 29, 2, 16, 15, 19, 20, 0, 0, 23, 0, 0, 0, 30, 0, 3, 0, 1, 0|
9, 25, 0, 0, 0, 29, 0, 22, 0, 7, 16, 0, 27, 12, 15, 0, 0, 8, 20, 0, 0, 24, 21, 11, 5, 0, 0, 0, 23, 26|
15, 10, 20, 22, 0, 1, 5, 14, 29, 0, 0, 16, 26, 17, 0, 11, 0, 0, 24, 30, 12, 0, 19, 0, 0, 0, 27, 0, 0, 0|
0, 0, 24, 0, 2, 19, 0, 0, 28, 16, 15, 23, 0, 0, 3, 22, 4, 13, 0, 0, 8, 0, 14, 21, 0, 0, 1, 29, 10, 0|
21, 19, 22, 3, 0, 30, 1, 5, 0, 26, 0, 0, 0, 0, 4, 0, 18, 12, 0, 0, 7, 0, 0, 13, 6, 27, 16, 0, 24, 8|
13, 18, 8, 26, 0, 16, 0, 0, 0, 23, 27, 0, 15, 7, 0, 0, 0, 6, 4, 0, 0, 20, 0, 0, 2, 0, 25, 28, 9, 24|
2, 0, 17, 0, 0, 0, 26, 0, 16, 22, 7, 0, 5, 9, 14, 3, 0, 0, 29, 0, 0, 0, 23, 8, 21, 0, 24, 6, 0, 30|
29, 24, 0, 18, 5, 0, 0, 0, 0, 0, 25, 0, 0, 0, 0, 0, 7, 22, 23, 27, 0, 26, 16, 0, 8, 1, 2, 17, 30, 28|
0, 8, 16, 0, 0, 7, 0, 23, 11, 15, 0, 0, 14, 0, 0, 0, 0, 0, 5, 4, 0, 1, 6, 2, 17, 9, 26, 18, 28, 0|
30, 3, 0, 17, 14, 0, 0, 0, 22, 0, 0, 1, 24, 0, 19, 8, 12, 21, 0, 25, 0, 0, 13, 23, 27, 29, 0, 0, 16, 20|
19, 0, 26, 0, 22, 0, 7, 20, 14, 0, 9, 0, 13, 11, 0, 1, 24, 0, 0, 0, 0, 23, 27, 6, 0, 8, 0, 4, 12, 15|
7, 22, 0, 0, 0, 0, 27, 15, 2, 0, 10, 9, 17, 18, 0, 16, 28, 29, 30, 6, 24, 0, 0, 0, 25, 0, 0, 5, 13, 0|
0, 2, 0, 11, 20, 13, 0, 0, 25, 10, 30, 0, 0, 19, 0, 14, 0, 23, 0, 26, 6, 17, 0, 3, 24, 0, 28, 7, 0, 27|
25, 0, 4, 6, 9, 26, 0, 10, 8, 11, 0, 0, 0, 28, 2, 0, 0, 0, 1, 3, 16, 0, 17, 19, 0, 0, 18, 0, 29, 0|
0, 12, 2, 0, 0, 4, 0, 29, 0, 1, 0, 19, 23, 6, 9, 0, 0, 24, 27, 11, 30, 10, 18, 0, 0, 14, 0, 0, 25, 13|
0, 30, 25, 0, 0, 20, 3, 0, 5, 24, 4, 8, 28, 14, 0, 29, 11, 9, 19, 0, 0, 7, 0, 22, 0, 17, 0, 0, 0, 0|
23, 0, 18, 29, 1, 0, 28, 12, 0, 5, 14, 0, 11, 0, 0, 0, 8, 16, 2, 7, 0, 6, 26, 0, 0, 22, 19, 0, 0, 10|];
